% demand
num_movements = 26;
loading_factor = [1450, 1150, 1350, 1000, 950, 1200, 1000, 1000, 1700, 1150, 1550, 1500, 1950, 2000, 1950, 950, 1900, 1400, 800, 850, 1100, 1100, 2000, 1500, 950, 1850];
pickup_time = [0, 0, 0, 1, 3, 3, 3, 3, 3, 3, 4, 4, 4, 4, 5, 6, 6, 6, 6, 6, 6, 8, 8, 9, 9, 9];
delivery_time = [3, 2, 3, 3, 4, 4, 4, 4, 4, 4, 5, 5, 6, 6, 6, 7, 7, 7, 7, 7, 7, 9, 10, 10, 10, 10];

% transporter definition
total_capacity = 7000;
num_decks = 3;
capacity = [3000, 1000, 3000];

% ways out of decks
num_ways_out = 1;
paths_out = array3d(decks, ways_out, decks, [
% ways out of deck d1
2, 3, 0, 

% ways out of deck d2
3, 0, 0, 

% ways out of deck d3
0, 0, 0,	

]);

